certificates/rado_a10_c196_N26.cnf
c Rad2 upper bound instance: x1 + 10*x2 - x3 = 196, interval [1,26]
p cnf 26 132
1 5 20 0
-1 -5 -20 0
1 15 21 0
-1 -15 -21 0
1 22 25 0
-1 -22 -25 0
2 6 20 0
-2 -6 -20 0
2 16 21 0
-2 -16 -21 0
2 22 26 0
-2 -22 -26 0
3 7 20 0
-3 -7 -20 0
3 17 21 0
-3 -17 -21 0
4 8 20 0
-4 -8 -20 0
4 18 21 0
-4 -18 -21 0
5 9 20 0
-5 -9 -20 0
5 19 21 0
-5 -19 -21 0
6 10 20 0
-6 -10 -20 0
6 20 21 0
-6 -20 -21 0
1 7 19 0
-1 -7 -19 0
7 11 20 0
-7 -11 -20 0
7 21 0
-7 -21 0
2 8 19 0
-2 -8 -19 0
8 12 20 0
-8 -12 -20 0
8 21 22 0
-8 -21 -22 0
3 9 19 0
-3 -9 -19 0
9 13 20 0
-9 -13 -20 0
9 21 23 0
-9 -21 -23 0
4 10 19 0
-4 -10 -19 0
10 14 20 0
-10 -14 -20 0
10 21 24 0
-10 -21 -24 0
5 11 19 0
-5 -11 -19 0
11 15 20 0
-11 -15 -20 0
11 21 25 0
-11 -21 -25 0
6 12 19 0
-6 -12 -19 0
12 16 20 0
-12 -16 -20 0
12 21 26 0
-12 -21 -26 0
7 13 19 0
-7 -13 -19 0
13 17 20 0
-13 -17 -20 0
8 14 19 0
-8 -14 -19 0
14 18 20 0
-14 -18 -20 0
9 15 19 0
-9 -15 -19 0
15 19 20 0
-15 -19 -20 0
10 16 19 0
-10 -16 -19 0
16 20 0
-16 -20 0
1 17 18 0
-1 -17 -18 0
11 17 19 0
-11 -17 -19 0
17 20 21 0
-17 -20 -21 0
2 18 0
-2 -18 0
12 18 19 0
-12 -18 -19 0
18 20 22 0
-18 -20 -22 0
3 18 19 0
-3 -18 -19 0
13 19 0
-13 -19 0
19 20 23 0
-19 -20 -23 0
4 18 20 0
-4 -18 -20 0
14 19 20 0
-14 -19 -20 0
20 24 0
-20 -24 0
5 18 21 0
-5 -18 -21 0
15 19 21 0
-15 -19 -21 0
20 21 25 0
-20 -21 -25 0
6 18 22 0
-6 -18 -22 0
16 19 22 0
-16 -19 -22 0
20 22 26 0
-20 -22 -26 0
7 18 23 0
-7 -18 -23 0
17 19 23 0
-17 -19 -23 0
8 18 24 0
-8 -18 -24 0
18 19 24 0
-18 -19 -24 0
9 18 25 0
-9 -18 -25 0
19 25 0
-19 -25 0
10 18 26 0
-10 -18 -26 0
19 20 26 0
-19 -20 -26 0
