certificates/rado_a10_c196_N26.drat
-22 -23 -25 -26 0
-24 -25 -26 0
-25 -26 0
d -24 -25 -26 0
d -22 -23 -25 -26 0
-19 -26 0
d -19 -20 -26 0
-26 0
22 0
-20 0
16 0
24 0
19 0
0
